(set-logic QF_LRA)
(declare-fun T1 () Real )
(declare-fun T2 () Real )
(declare-fun T3 () Real )
(declare-fun T4 () Real )
(declare-fun T5 () Real )
(declare-fun T6 () Real )
(declare-fun Z () Real )
(declare-fun k () Real )
(assert (let
(( $goal (>= Z k) ))
(let
((
$phi ( and 
(or ( <= ( + T1 33 ) T2 ) ( <= ( + T2 99 ) T1 ) )
(or ( <= ( + T1 98 )  ( + T2 99 ) ) ( <= ( + T2 161 )( + T1 33 ) ) )
(or ( <= ( + T1 131 )  ( + T2 161 ) ) ( <= ( + T2 254 )( + T1 98 ) ) )
(or ( <= ( + T1 212 )  ( + T2 254 ) ) ( <= ( + T2 283 )( + T1 131 ) ) )
(or ( <= ( + T1 33 ) T3 ) ( <= ( + T3 72 ) T1 ) )
(or ( <= ( + T1 98 )  ( + T3 72 ) ) ( <= ( + T3 170 )( + T1 33 ) ) )
(or ( <= ( + T1 131 )  ( + T3 170 ) ) ( <= ( + T3 201 )( + T1 98 ) ) )
(or ( <= ( + T1 212 )  ( + T3 201 ) ) ( <= ( + T3 264 )( + T1 131 ) ) )
(or ( <= ( + T1 33 ) T4 ) ( <= ( + T4 19 ) T1 ) )
(or ( <= ( + T1 98 )  ( + T4 19 ) ) ( <= ( + T4 93 )( + T1 33 ) ) )
(or ( <= ( + T1 131 )  ( + T4 93 ) ) ( <= ( + T4 171 )( + T1 98 ) ) )
(or ( <= ( + T1 212 )  ( + T4 171 ) ) ( <= ( + T4 260 )( + T1 131 ) ) )
(or ( <= ( + T1 33 ) T5 ) ( <= ( + T5 67 ) T1 ) )
(or ( <= ( + T1 98 )  ( + T5 67 ) ) ( <= ( + T5 114 )( + T1 33 ) ) )
(or ( <= ( + T1 131 )  ( + T5 114 ) ) ( <= ( + T5 168 )( + T1 98 ) ) )
(or ( <= ( + T1 212 )  ( + T5 168 ) ) ( <= ( + T5 198 )( + T1 131 ) ) )
(or ( <= ( + T1 33 ) T6 ) ( <= ( + T6 47 ) T1 ) )
(or ( <= ( + T1 98 )  ( + T6 47 ) ) ( <= ( + T6 109 )( + T1 33 ) ) )
(or ( <= ( + T1 131 )  ( + T6 109 ) ) ( <= ( + T6 127 )( + T1 98 ) ) )
(or ( <= ( + T1 212 )  ( + T6 127 ) ) ( <= ( + T6 180 )( + T1 131 ) ) )
(or ( <= ( + T2 99 ) T3 ) ( <= ( + T3 72 ) T2 ) )
(or ( <= ( + T2 161 )  ( + T3 72 ) ) ( <= ( + T3 170 )( + T2 99 ) ) )
(or ( <= ( + T2 254 )  ( + T3 170 ) ) ( <= ( + T3 201 )( + T2 161 ) ) )
(or ( <= ( + T2 283 )  ( + T3 201 ) ) ( <= ( + T3 264 )( + T2 254 ) ) )
(or ( <= ( + T2 99 ) T4 ) ( <= ( + T4 19 ) T2 ) )
(or ( <= ( + T2 161 )  ( + T4 19 ) ) ( <= ( + T4 93 )( + T2 99 ) ) )
(or ( <= ( + T2 254 )  ( + T4 93 ) ) ( <= ( + T4 171 )( + T2 161 ) ) )
(or ( <= ( + T2 283 )  ( + T4 171 ) ) ( <= ( + T4 260 )( + T2 254 ) ) )
(or ( <= ( + T2 99 ) T5 ) ( <= ( + T5 67 ) T2 ) )
(or ( <= ( + T2 161 )  ( + T5 67 ) ) ( <= ( + T5 114 )( + T2 99 ) ) )
(or ( <= ( + T2 254 )  ( + T5 114 ) ) ( <= ( + T5 168 )( + T2 161 ) ) )
(or ( <= ( + T2 283 )  ( + T5 168 ) ) ( <= ( + T5 198 )( + T2 254 ) ) )
(or ( <= ( + T2 99 ) T6 ) ( <= ( + T6 47 ) T2 ) )
(or ( <= ( + T2 161 )  ( + T6 47 ) ) ( <= ( + T6 109 )( + T2 99 ) ) )
(or ( <= ( + T2 254 )  ( + T6 109 ) ) ( <= ( + T6 127 )( + T2 161 ) ) )
(or ( <= ( + T2 283 )  ( + T6 127 ) ) ( <= ( + T6 180 )( + T2 254 ) ) )
(or ( <= ( + T3 72 ) T4 ) ( <= ( + T4 19 ) T3 ) )
(or ( <= ( + T3 170 )  ( + T4 19 ) ) ( <= ( + T4 93 )( + T3 72 ) ) )
(or ( <= ( + T3 201 )  ( + T4 93 ) ) ( <= ( + T4 171 )( + T3 170 ) ) )
(or ( <= ( + T3 264 )  ( + T4 171 ) ) ( <= ( + T4 260 )( + T3 201 ) ) )
(or ( <= ( + T3 72 ) T5 ) ( <= ( + T5 67 ) T3 ) )
(or ( <= ( + T3 170 )  ( + T5 67 ) ) ( <= ( + T5 114 )( + T3 72 ) ) )
(or ( <= ( + T3 201 )  ( + T5 114 ) ) ( <= ( + T5 168 )( + T3 170 ) ) )
(or ( <= ( + T3 264 )  ( + T5 168 ) ) ( <= ( + T5 198 )( + T3 201 ) ) )
(or ( <= ( + T3 72 ) T6 ) ( <= ( + T6 47 ) T3 ) )
(or ( <= ( + T3 170 )  ( + T6 47 ) ) ( <= ( + T6 109 )( + T3 72 ) ) )
(or ( <= ( + T3 201 )  ( + T6 109 ) ) ( <= ( + T6 127 )( + T3 170 ) ) )
(or ( <= ( + T3 264 )  ( + T6 127 ) ) ( <= ( + T6 180 )( + T3 201 ) ) )
(or ( <= ( + T4 19 ) T5 ) ( <= ( + T5 67 ) T4 ) )
(or ( <= ( + T4 93 )  ( + T5 67 ) ) ( <= ( + T5 114 )( + T4 19 ) ) )
(or ( <= ( + T4 171 )  ( + T5 114 ) ) ( <= ( + T5 168 )( + T4 93 ) ) )
(or ( <= ( + T4 260 )  ( + T5 168 ) ) ( <= ( + T5 198 )( + T4 171 ) ) )
(or ( <= ( + T4 19 ) T6 ) ( <= ( + T6 47 ) T4 ) )
(or ( <= ( + T4 93 )  ( + T6 47 ) ) ( <= ( + T6 109 )( + T4 19 ) ) )
(or ( <= ( + T4 171 )  ( + T6 109 ) ) ( <= ( + T6 127 )( + T4 93 ) ) )
(or ( <= ( + T4 260 )  ( + T6 127 ) ) ( <= ( + T6 180 )( + T4 171 ) ) )
(or ( <= ( + T5 67 ) T6 ) ( <= ( + T6 47 ) T5 ) )
(or ( <= ( + T5 114 )  ( + T6 47 ) ) ( <= ( + T6 109 )( + T5 67 ) ) )
(or ( <= ( + T5 168 )  ( + T6 109 ) ) ( <= ( + T6 127 )( + T5 114 ) ) )
(or ( <= ( + T5 198 )  ( + T6 127 ) ) ( <= ( + T6 180 )( + T5 168 ) ) )
( <= ( + T1 212 ) Z)
( <= ( + T2 283 ) Z)
( <= ( + T3 264 ) Z)
( <= ( + T4 260 ) Z)
( <= ( + T5 198 ) Z)
( <= ( + T6 180 ) Z)
( >= T1 0 )
( >= T2 0 )
( >= T3 0 )
( >= T4 0 )
( >= T5 0 )
( >= T6 0 )
) )
)(=> $phi $goal))))